
Gurobi 9.1.1 (linux64) logging started Tue Oct 19 11:51:30 2021

Changed value of parameter LogFile to results/max3cut_numv160/max3cut_numv160_i160-015_peel_decompose_weighted_BQO_log.txt
   Prev:   Default: 
Gurobi Optimizer version 9.1.1 build v9.1.1rc0 (linux64)
Thread count: 20 physical cores, 40 logical processors, using up to 10 threads
Optimize a model with 160 rows, 480 columns and 480 nonzeros
Model fingerprint: 0x9829faca
Model has 2916 quadratic objective terms
Variable types: 0 continuous, 480 integer (480 binary)
Coefficient statistics:
  Matrix range     [1e+00, 1e+00]
  Objective range  [8e+01, 8e+01]
  QObjective range [2e+02, 6e+02]
  Bounds range     [1e+00, 1e+00]
  RHS range        [1e+00, 1e+00]
Found heuristic solution: objective -0.0000000
Presolve removed 1 rows and 3 columns
Presolve time: 0.00s
Presolved: 2532 rows, 2850 columns, 7596 nonzeros
Variable types: 0 continuous, 2850 integer (2850 binary)

Root relaxation: objective -8.876700e+04, 386 iterations, 0.01 seconds

    Nodes    |    Current Node    |     Objective Bounds      |     Work
 Expl Unexpl |  Obj  Depth IntInf | Incumbent    BestBd   Gap | It/Node Time

     0     0 88767.0000    0  248   -0.00000 88767.0000      -     -    0s
H    0     0                    73041.000000 88767.0000  21.5%     -    0s
H    0     0                    78470.000000 88767.0000  13.1%     -    0s
H    0     0                    79026.000000 88767.0000  12.3%     -    0s
     0     0 88581.8333    0  399 79026.0000 88581.8333  12.1%     -    0s
     0     0 88581.8333    0  398 79026.0000 88581.8333  12.1%     -    0s
     0     0 88474.0000    0  409 79026.0000 88474.0000  12.0%     -    0s
     0     0 88474.0000    0  396 79026.0000 88474.0000  12.0%     -    0s
     0     0 88283.9167    0  450 79026.0000 88283.9167  11.7%     -    0s
     0     0 88276.6875    0  447 79026.0000 88276.6875  11.7%     -    0s
     0     0 88151.6765    0  474 79026.0000 88151.6765  11.5%     -    0s
     0     0 88127.3596    0  480 79026.0000 88127.3596  11.5%     -    1s
     0     0 88105.1707    0  476 79026.0000 88105.1707  11.5%     -    1s
     0     0 88104.4038    0  472 79026.0000 88104.4038  11.5%     -    1s
     0     0 88086.6053    0  486 79026.0000 88086.6053  11.5%     -    1s
     0     0 88080.2993    0  484 79026.0000 88080.2993  11.5%     -    1s
     0     0 88076.5000    0  492 79026.0000 88076.5000  11.5%     -    1s
     0     0 88076.5000    0  477 79026.0000 88076.5000  11.5%     -    1s
     0     2 88075.0000    0  475 79026.0000 88075.0000  11.5%     -    1s
H  455   469                    79119.000000 87681.6062  10.8%   252    4s
H  544   548                    79161.000000 87681.6062  10.8%   227    4s
H  545   548                    79248.000000 87681.6062  10.6%   228    4s
H  550   548                    79256.000000 87681.6062  10.6%   226    4s
H  566   548                    79341.000000 87681.6062  10.5%   224    4s
   581   560 86567.7041   11  520 79341.0000 87681.6062  10.5%   222    5s

Cutting planes:
  Gomory: 7
  MIR: 34
  Zero half: 174
  RLT: 242
  BQP: 37

Explored 621 nodes (142247 simplex iterations) in 5.00 seconds
Thread count was 10 (of 40 available processors)

Solution count 9: 79341 79256 79248 ... -0

Time limit reached
Best objective 7.934100000000e+04, best bound 8.768100000000e+04, gap 10.5116%
